(set-logic HORN)
(declare-datatypes ((Nat_0 0)) (((Z_0 ) (S_0 (unS_0 Nat_0)))))
(declare-fun diseqNat_0 (Nat_0 Nat_0) Bool)
(declare-fun unS_1 (Nat_0 Nat_0) Bool)
(declare-fun isZ_0 (Nat_0) Bool)
(declare-fun isS_0 (Nat_0) Bool)
(assert (forall ((x_76 Nat_0) (x_75 Nat_0))
	(=> (= x_76 (S_0 x_75))
	    (unS_1 x_75 x_76))))
(assert (isZ_0 Z_0))
(assert (forall ((x_77 Nat_0))
	(isS_0 (S_0 x_77))))
(assert (forall ((x_78 Nat_0))
	(diseqNat_0 Z_0 (S_0 x_78))))
(assert (forall ((x_79 Nat_0))
	(diseqNat_0 (S_0 x_79) Z_0)))
(assert (forall ((x_80 Nat_0) (x_81 Nat_0))
	(=> (diseqNat_0 x_80 x_81)
	    (diseqNat_0 (S_0 x_80) (S_0 x_81)))))
(declare-fun add_0 (Nat_0 Nat_0 Nat_0) Bool)
(declare-fun minus_0 (Nat_0 Nat_0 Nat_0) Bool)
(declare-fun le_0 (Nat_0 Nat_0) Bool)
(declare-fun ge_0 (Nat_0 Nat_0) Bool)
(declare-fun lt_0 (Nat_0 Nat_0) Bool)
(declare-fun gt_0 (Nat_0 Nat_0) Bool)
(declare-fun mult_0 (Nat_0 Nat_0 Nat_0) Bool)
(declare-fun div_0 (Nat_0 Nat_0 Nat_0) Bool)
(declare-fun mod_0 (Nat_0 Nat_0 Nat_0) Bool)
(assert (forall ((y_5 Nat_0))
	(add_0 y_5 Z_0 y_5)))
(assert (forall ((x_68 Nat_0) (y_5 Nat_0) (r_2 Nat_0))
	(=> (add_0 r_2 x_68 y_5)
	    (add_0 (S_0 r_2) (S_0 x_68) y_5))))
(assert (forall ((y_5 Nat_0))
	(minus_0 Z_0 Z_0 y_5)))
(assert (forall ((x_68 Nat_0) (y_5 Nat_0) (r_2 Nat_0))
	(=> (minus_0 r_2 x_68 y_5)
	    (minus_0 (S_0 r_2) (S_0 x_68) y_5))))
(assert (forall ((y_5 Nat_0))
	(le_0 Z_0 y_5)))
(assert (forall ((x_68 Nat_0) (y_5 Nat_0))
	(=> (le_0 x_68 y_5)
	    (le_0 (S_0 x_68) (S_0 y_5)))))
(assert (forall ((y_5 Nat_0))
	(ge_0 y_5 Z_0)))
(assert (forall ((x_68 Nat_0) (y_5 Nat_0))
	(=> (ge_0 x_68 y_5)
	    (ge_0 (S_0 x_68) (S_0 y_5)))))
(assert (forall ((y_5 Nat_0))
	(lt_0 Z_0 (S_0 y_5))))
(assert (forall ((x_68 Nat_0) (y_5 Nat_0))
	(=> (lt_0 x_68 y_5)
	    (lt_0 (S_0 x_68) (S_0 y_5)))))
(assert (forall ((y_5 Nat_0))
	(gt_0 (S_0 y_5) Z_0)))
(assert (forall ((x_68 Nat_0) (y_5 Nat_0))
	(=> (gt_0 x_68 y_5)
	    (gt_0 (S_0 x_68) (S_0 y_5)))))
(assert (forall ((y_5 Nat_0))
	(mult_0 Z_0 Z_0 y_5)))
(assert (forall ((x_68 Nat_0) (y_5 Nat_0) (r_2 Nat_0) (z_4 Nat_0))
	(=>	(and (mult_0 r_2 x_68 y_5)
			(add_0 z_4 r_2 y_5))
		(mult_0 z_4 (S_0 x_68) y_5))))
(assert (forall ((x_68 Nat_0) (y_5 Nat_0))
	(=> (lt_0 x_68 y_5)
	    (div_0 Z_0 x_68 y_5))))
(assert (forall ((x_68 Nat_0) (y_5 Nat_0) (r_2 Nat_0) (z_4 Nat_0))
	(=>	(and (ge_0 x_68 y_5)
			(minus_0 z_4 x_68 y_5)
			(div_0 r_2 z_4 y_5))
		(div_0 (S_0 r_2) x_68 y_5))))
(assert (forall ((x_68 Nat_0) (y_5 Nat_0))
	(=> (lt_0 x_68 y_5)
	    (mod_0 x_68 x_68 y_5))))
(assert (forall ((x_68 Nat_0) (y_5 Nat_0) (r_2 Nat_0) (z_4 Nat_0))
	(=>	(and (ge_0 x_68 y_5)
			(minus_0 z_4 x_68 y_5)
			(mod_0 r_2 z_4 y_5))
		(mod_0 r_2 x_68 y_5))))
(declare-datatypes ((list_0 0)) (((nil_0 ) (cons_0 (head_0 Nat_0) (tail_0 list_0)))))
(declare-fun diseqlist_0 (list_0 list_0) Bool)
(declare-fun head_2 (Nat_0 list_0) Bool)
(declare-fun tail_2 (list_0 list_0) Bool)
(declare-fun isnil_0 (list_0) Bool)
(declare-fun iscons_0 (list_0) Bool)
(assert (forall ((x_85 list_0) (x_83 Nat_0) (x_84 list_0))
	(=> (= x_85 (cons_0 x_83 x_84))
	    (head_2 x_83 x_85))))
(assert (forall ((x_85 list_0) (x_83 Nat_0) (x_84 list_0))
	(=> (= x_85 (cons_0 x_83 x_84))
	    (tail_2 x_84 x_85))))
(assert (isnil_0 nil_0))
(assert (forall ((x_86 Nat_0) (x_87 list_0))
	(iscons_0 (cons_0 x_86 x_87))))
(assert (forall ((x_88 Nat_0) (x_89 list_0))
	(diseqlist_0 nil_0 (cons_0 x_88 x_89))))
(assert (forall ((x_90 Nat_0) (x_91 list_0))
	(diseqlist_0 (cons_0 x_90 x_91) nil_0)))
(assert (forall ((x_92 Nat_0) (x_93 list_0) (x_94 Nat_0) (x_95 list_0))
	(=> (diseqNat_0 x_92 x_94)
	    (diseqlist_0 (cons_0 x_92 x_93) (cons_0 x_94 x_95)))))
(assert (forall ((x_92 Nat_0) (x_93 list_0) (x_94 Nat_0) (x_95 list_0))
	(=> (diseqlist_0 x_93 x_95)
	    (diseqlist_0 (cons_0 x_92 x_93) (cons_0 x_94 x_95)))))
(declare-datatypes ((E_0 0)) (((N_0 (projN_0 Nat_0)) (Add_0 (projAdd_0 E_0) (projAdd_1 E_0)) (Mul_0 (projMul_0 E_0) (projMul_1 E_0)) (Eq_0 (projEq_0 E_0) (projEq_1 E_0)) (V_0 (projV_0 Nat_0)))))
(declare-fun diseqE_0 (E_0 E_0) Bool)
(declare-fun projN_1 (Nat_0 E_0) Bool)
(declare-fun projAdd_2 (E_0 E_0) Bool)
(declare-fun projAdd_3 (E_0 E_0) Bool)
(declare-fun projMul_2 (E_0 E_0) Bool)
(declare-fun projMul_3 (E_0 E_0) Bool)
(declare-fun projEq_2 (E_0 E_0) Bool)
(declare-fun projEq_3 (E_0 E_0) Bool)
(declare-fun projV_1 (Nat_0 E_0) Bool)
(declare-fun isN_0 (E_0) Bool)
(declare-fun isAdd_0 (E_0) Bool)
(declare-fun isMul_0 (E_0) Bool)
(declare-fun isEq_0 (E_0) Bool)
(declare-fun isV_0 (E_0) Bool)
(assert (forall ((x_97 E_0) (x_96 Nat_0))
	(=> (= x_97 (N_0 x_96))
	    (projN_1 x_96 x_97))))
(assert (forall ((x_100 E_0) (x_98 E_0) (x_99 E_0))
	(=> (= x_100 (Add_0 x_98 x_99))
	    (projAdd_2 x_98 x_100))))
(assert (forall ((x_100 E_0) (x_98 E_0) (x_99 E_0))
	(=> (= x_100 (Add_0 x_98 x_99))
	    (projAdd_3 x_99 x_100))))
(assert (forall ((x_103 E_0) (x_101 E_0) (x_102 E_0))
	(=> (= x_103 (Mul_0 x_101 x_102))
	    (projMul_2 x_101 x_103))))
(assert (forall ((x_103 E_0) (x_101 E_0) (x_102 E_0))
	(=> (= x_103 (Mul_0 x_101 x_102))
	    (projMul_3 x_102 x_103))))
(assert (forall ((x_106 E_0) (x_104 E_0) (x_105 E_0))
	(=> (= x_106 (Eq_0 x_104 x_105))
	    (projEq_2 x_104 x_106))))
(assert (forall ((x_106 E_0) (x_104 E_0) (x_105 E_0))
	(=> (= x_106 (Eq_0 x_104 x_105))
	    (projEq_3 x_105 x_106))))
(assert (forall ((x_108 E_0) (x_107 Nat_0))
	(=> (= x_108 (V_0 x_107))
	    (projV_1 x_107 x_108))))
(assert (forall ((x_109 Nat_0))
	(isN_0 (N_0 x_109))))
(assert (forall ((x_110 E_0) (x_111 E_0))
	(isAdd_0 (Add_0 x_110 x_111))))
(assert (forall ((x_112 E_0) (x_113 E_0))
	(isMul_0 (Mul_0 x_112 x_113))))
(assert (forall ((x_114 E_0) (x_115 E_0))
	(isEq_0 (Eq_0 x_114 x_115))))
(assert (forall ((x_116 Nat_0))
	(isV_0 (V_0 x_116))))
(assert (forall ((x_117 Nat_0) (x_118 E_0) (x_119 E_0))
	(diseqE_0 (N_0 x_117) (Add_0 x_118 x_119))))
(assert (forall ((x_120 Nat_0) (x_121 E_0) (x_122 E_0))
	(diseqE_0 (N_0 x_120) (Mul_0 x_121 x_122))))
(assert (forall ((x_123 Nat_0) (x_124 E_0) (x_125 E_0))
	(diseqE_0 (N_0 x_123) (Eq_0 x_124 x_125))))
(assert (forall ((x_126 Nat_0) (x_127 Nat_0))
	(diseqE_0 (N_0 x_126) (V_0 x_127))))
(assert (forall ((x_128 E_0) (x_129 E_0) (x_130 Nat_0))
	(diseqE_0 (Add_0 x_128 x_129) (N_0 x_130))))
(assert (forall ((x_131 E_0) (x_132 E_0) (x_133 Nat_0))
	(diseqE_0 (Mul_0 x_131 x_132) (N_0 x_133))))
(assert (forall ((x_134 E_0) (x_135 E_0) (x_136 Nat_0))
	(diseqE_0 (Eq_0 x_134 x_135) (N_0 x_136))))
(assert (forall ((x_137 Nat_0) (x_138 Nat_0))
	(diseqE_0 (V_0 x_137) (N_0 x_138))))
(assert (forall ((x_139 E_0) (x_140 E_0) (x_141 E_0) (x_142 E_0))
	(diseqE_0 (Add_0 x_139 x_140) (Mul_0 x_141 x_142))))
(assert (forall ((x_143 E_0) (x_144 E_0) (x_145 E_0) (x_146 E_0))
	(diseqE_0 (Add_0 x_143 x_144) (Eq_0 x_145 x_146))))
(assert (forall ((x_147 E_0) (x_148 E_0) (x_149 Nat_0))
	(diseqE_0 (Add_0 x_147 x_148) (V_0 x_149))))
(assert (forall ((x_150 E_0) (x_151 E_0) (x_152 E_0) (x_153 E_0))
	(diseqE_0 (Mul_0 x_150 x_151) (Add_0 x_152 x_153))))
(assert (forall ((x_154 E_0) (x_155 E_0) (x_156 E_0) (x_157 E_0))
	(diseqE_0 (Eq_0 x_154 x_155) (Add_0 x_156 x_157))))
(assert (forall ((x_158 Nat_0) (x_159 E_0) (x_160 E_0))
	(diseqE_0 (V_0 x_158) (Add_0 x_159 x_160))))
(assert (forall ((x_161 E_0) (x_162 E_0) (x_163 E_0) (x_164 E_0))
	(diseqE_0 (Mul_0 x_161 x_162) (Eq_0 x_163 x_164))))
(assert (forall ((x_165 E_0) (x_166 E_0) (x_167 Nat_0))
	(diseqE_0 (Mul_0 x_165 x_166) (V_0 x_167))))
(assert (forall ((x_168 E_0) (x_169 E_0) (x_170 E_0) (x_171 E_0))
	(diseqE_0 (Eq_0 x_168 x_169) (Mul_0 x_170 x_171))))
(assert (forall ((x_172 Nat_0) (x_173 E_0) (x_174 E_0))
	(diseqE_0 (V_0 x_172) (Mul_0 x_173 x_174))))
(assert (forall ((x_175 E_0) (x_176 E_0) (x_177 Nat_0))
	(diseqE_0 (Eq_0 x_175 x_176) (V_0 x_177))))
(assert (forall ((x_178 Nat_0) (x_179 E_0) (x_180 E_0))
	(diseqE_0 (V_0 x_178) (Eq_0 x_179 x_180))))
(assert (forall ((x_181 Nat_0) (x_182 Nat_0))
	(=> (diseqNat_0 x_181 x_182)
	    (diseqE_0 (N_0 x_181) (N_0 x_182)))))
(assert (forall ((x_183 E_0) (x_184 E_0) (x_185 E_0) (x_186 E_0))
	(=> (diseqE_0 x_183 x_185)
	    (diseqE_0 (Add_0 x_183 x_184) (Add_0 x_185 x_186)))))
(assert (forall ((x_183 E_0) (x_184 E_0) (x_185 E_0) (x_186 E_0))
	(=> (diseqE_0 x_184 x_186)
	    (diseqE_0 (Add_0 x_183 x_184) (Add_0 x_185 x_186)))))
(assert (forall ((x_187 E_0) (x_188 E_0) (x_189 E_0) (x_190 E_0))
	(=> (diseqE_0 x_187 x_189)
	    (diseqE_0 (Mul_0 x_187 x_188) (Mul_0 x_189 x_190)))))
(assert (forall ((x_187 E_0) (x_188 E_0) (x_189 E_0) (x_190 E_0))
	(=> (diseqE_0 x_188 x_190)
	    (diseqE_0 (Mul_0 x_187 x_188) (Mul_0 x_189 x_190)))))
(assert (forall ((x_191 E_0) (x_192 E_0) (x_193 E_0) (x_194 E_0))
	(=> (diseqE_0 x_191 x_193)
	    (diseqE_0 (Eq_0 x_191 x_192) (Eq_0 x_193 x_194)))))
(assert (forall ((x_191 E_0) (x_192 E_0) (x_193 E_0) (x_194 E_0))
	(=> (diseqE_0 x_192 x_194)
	    (diseqE_0 (Eq_0 x_191 x_192) (Eq_0 x_193 x_194)))))
(assert (forall ((x_195 Nat_0) (x_196 Nat_0))
	(=> (diseqNat_0 x_195 x_196)
	    (diseqE_0 (V_0 x_195) (V_0 x_196)))))
(declare-datatypes ((P_0 0) (list_1 0)) (((Print_0 (projPrint_0 E_0)) (x_0 (proj_0 Nat_0) (proj_1 E_0)) (While_0 (projWhile_0 E_0) (projWhile_1 list_1)) (If_0 (projIf_0 E_0) (projIf_1 list_1) (projIf_2 list_1))) ((nil_1 ) (cons_1 (head_1 P_0) (tail_1 list_1)))))
(declare-fun diseqP_0 (P_0 P_0) Bool)
(declare-fun projPrint_1 (E_0 P_0) Bool)
(declare-fun proj_2 (Nat_0 P_0) Bool)
(declare-fun proj_3 (E_0 P_0) Bool)
(declare-fun projWhile_2 (E_0 P_0) Bool)
(declare-fun projWhile_3 (list_1 P_0) Bool)
(declare-fun projIf_3 (E_0 P_0) Bool)
(declare-fun projIf_4 (list_1 P_0) Bool)
(declare-fun projIf_5 (list_1 P_0) Bool)
(declare-fun isPrint_0 (P_0) Bool)
(declare-fun isx_0 (P_0) Bool)
(declare-fun isWhile_0 (P_0) Bool)
(declare-fun isIf_0 (P_0) Bool)
(declare-fun diseqlist_1 (list_1 list_1) Bool)
(declare-fun head_3 (P_0 list_1) Bool)
(declare-fun tail_3 (list_1 list_1) Bool)
(declare-fun isnil_1 (list_1) Bool)
(declare-fun iscons_1 (list_1) Bool)
(assert (forall ((x_198 P_0) (x_197 E_0))
	(=> (= x_198 (Print_0 x_197))
	    (projPrint_1 x_197 x_198))))
(assert (forall ((x_201 P_0) (x_199 Nat_0) (x_200 E_0))
	(=> (= x_201 (x_0 x_199 x_200))
	    (proj_2 x_199 x_201))))
(assert (forall ((x_201 P_0) (x_199 Nat_0) (x_200 E_0))
	(=> (= x_201 (x_0 x_199 x_200))
	    (proj_3 x_200 x_201))))
(assert (forall ((x_204 P_0) (x_202 E_0) (x_203 list_1))
	(=> (= x_204 (While_0 x_202 x_203))
	    (projWhile_2 x_202 x_204))))
(assert (forall ((x_204 P_0) (x_202 E_0) (x_203 list_1))
	(=> (= x_204 (While_0 x_202 x_203))
	    (projWhile_3 x_203 x_204))))
(assert (forall ((x_208 P_0) (x_205 E_0) (x_206 list_1) (x_207 list_1))
	(=> (= x_208 (If_0 x_205 x_206 x_207))
	    (projIf_3 x_205 x_208))))
(assert (forall ((x_208 P_0) (x_205 E_0) (x_206 list_1) (x_207 list_1))
	(=> (= x_208 (If_0 x_205 x_206 x_207))
	    (projIf_4 x_206 x_208))))
(assert (forall ((x_208 P_0) (x_205 E_0) (x_206 list_1) (x_207 list_1))
	(=> (= x_208 (If_0 x_205 x_206 x_207))
	    (projIf_5 x_207 x_208))))
(assert (forall ((x_209 E_0))
	(isPrint_0 (Print_0 x_209))))
(assert (forall ((x_210 Nat_0) (x_211 E_0))
	(isx_0 (x_0 x_210 x_211))))
(assert (forall ((x_212 E_0) (x_213 list_1))
	(isWhile_0 (While_0 x_212 x_213))))
(assert (forall ((x_214 E_0) (x_215 list_1) (x_216 list_1))
	(isIf_0 (If_0 x_214 x_215 x_216))))
(assert (forall ((x_217 E_0) (x_218 Nat_0) (x_219 E_0))
	(diseqP_0 (Print_0 x_217) (x_0 x_218 x_219))))
(assert (forall ((x_220 E_0) (x_221 E_0) (x_222 list_1))
	(diseqP_0 (Print_0 x_220) (While_0 x_221 x_222))))
(assert (forall ((x_223 E_0) (x_224 E_0) (x_225 list_1) (x_226 list_1))
	(diseqP_0 (Print_0 x_223) (If_0 x_224 x_225 x_226))))
(assert (forall ((x_227 Nat_0) (x_228 E_0) (x_229 E_0))
	(diseqP_0 (x_0 x_227 x_228) (Print_0 x_229))))
(assert (forall ((x_230 E_0) (x_231 list_1) (x_232 E_0))
	(diseqP_0 (While_0 x_230 x_231) (Print_0 x_232))))
(assert (forall ((x_233 E_0) (x_234 list_1) (x_235 list_1) (x_236 E_0))
	(diseqP_0 (If_0 x_233 x_234 x_235) (Print_0 x_236))))
(assert (forall ((x_237 Nat_0) (x_238 E_0) (x_239 E_0) (x_240 list_1))
	(diseqP_0 (x_0 x_237 x_238) (While_0 x_239 x_240))))
(assert (forall ((x_241 Nat_0) (x_242 E_0) (x_243 E_0) (x_244 list_1) (x_245 list_1))
	(diseqP_0 (x_0 x_241 x_242) (If_0 x_243 x_244 x_245))))
(assert (forall ((x_246 E_0) (x_247 list_1) (x_248 Nat_0) (x_249 E_0))
	(diseqP_0 (While_0 x_246 x_247) (x_0 x_248 x_249))))
(assert (forall ((x_250 E_0) (x_251 list_1) (x_252 list_1) (x_253 Nat_0) (x_254 E_0))
	(diseqP_0 (If_0 x_250 x_251 x_252) (x_0 x_253 x_254))))
(assert (forall ((x_255 E_0) (x_256 list_1) (x_257 E_0) (x_258 list_1) (x_259 list_1))
	(diseqP_0 (While_0 x_255 x_256) (If_0 x_257 x_258 x_259))))
(assert (forall ((x_260 E_0) (x_261 list_1) (x_262 list_1) (x_263 E_0) (x_264 list_1))
	(diseqP_0 (If_0 x_260 x_261 x_262) (While_0 x_263 x_264))))
(assert (forall ((x_265 E_0) (x_266 E_0))
	(=> (diseqE_0 x_265 x_266)
	    (diseqP_0 (Print_0 x_265) (Print_0 x_266)))))
(assert (forall ((x_267 Nat_0) (x_268 E_0) (x_269 Nat_0) (x_270 E_0))
	(=> (diseqNat_0 x_267 x_269)
	    (diseqP_0 (x_0 x_267 x_268) (x_0 x_269 x_270)))))
(assert (forall ((x_267 Nat_0) (x_268 E_0) (x_269 Nat_0) (x_270 E_0))
	(=> (diseqE_0 x_268 x_270)
	    (diseqP_0 (x_0 x_267 x_268) (x_0 x_269 x_270)))))
(assert (forall ((x_271 E_0) (x_272 list_1) (x_273 E_0) (x_274 list_1))
	(=> (diseqE_0 x_271 x_273)
	    (diseqP_0 (While_0 x_271 x_272) (While_0 x_273 x_274)))))
(assert (forall ((x_271 E_0) (x_272 list_1) (x_273 E_0) (x_274 list_1))
	(=> (diseqlist_1 x_272 x_274)
	    (diseqP_0 (While_0 x_271 x_272) (While_0 x_273 x_274)))))
(assert (forall ((x_275 E_0) (x_276 list_1) (x_277 list_1) (x_278 E_0) (x_279 list_1) (x_280 list_1))
	(=> (diseqE_0 x_275 x_278)
	    (diseqP_0 (If_0 x_275 x_276 x_277) (If_0 x_278 x_279 x_280)))))
(assert (forall ((x_275 E_0) (x_276 list_1) (x_277 list_1) (x_278 E_0) (x_279 list_1) (x_280 list_1))
	(=> (diseqlist_1 x_276 x_279)
	    (diseqP_0 (If_0 x_275 x_276 x_277) (If_0 x_278 x_279 x_280)))))
(assert (forall ((x_275 E_0) (x_276 list_1) (x_277 list_1) (x_278 E_0) (x_279 list_1) (x_280 list_1))
	(=> (diseqlist_1 x_277 x_280)
	    (diseqP_0 (If_0 x_275 x_276 x_277) (If_0 x_278 x_279 x_280)))))
(assert (forall ((x_284 list_1) (x_282 P_0) (x_283 list_1))
	(=> (= x_284 (cons_1 x_282 x_283))
	    (head_3 x_282 x_284))))
(assert (forall ((x_284 list_1) (x_282 P_0) (x_283 list_1))
	(=> (= x_284 (cons_1 x_282 x_283))
	    (tail_3 x_283 x_284))))
(assert (isnil_1 nil_1))
(assert (forall ((x_285 P_0) (x_286 list_1))
	(iscons_1 (cons_1 x_285 x_286))))
(assert (forall ((x_287 P_0) (x_288 list_1))
	(diseqlist_1 nil_1 (cons_1 x_287 x_288))))
(assert (forall ((x_289 P_0) (x_290 list_1))
	(diseqlist_1 (cons_1 x_289 x_290) nil_1)))
(assert (forall ((x_291 P_0) (x_292 list_1) (x_293 P_0) (x_294 list_1))
	(=> (diseqP_0 x_291 x_293)
	    (diseqlist_1 (cons_1 x_291 x_292) (cons_1 x_293 x_294)))))
(assert (forall ((x_291 P_0) (x_292 list_1) (x_293 P_0) (x_294 list_1))
	(=> (diseqlist_1 x_292 x_294)
	    (diseqlist_1 (cons_1 x_291 x_292) (cons_1 x_293 x_294)))))
(declare-fun store_0 (list_0 list_0 Nat_0 Nat_0) Bool)
(assert (forall ((x_1 list_0) (y_0 Nat_0) (z_0 Nat_0) (n_0 Nat_0) (st_0 list_0) (x_13 list_0))
	(=>	(and (= x_13 (cons_0 z_0 st_0))
			(= x_1 (cons_0 n_0 st_0))
			(= y_0 Z_0))
		(store_0 x_13 x_1 y_0 z_0))))
(assert (forall ((x_1 list_0) (y_0 Nat_0) (z_0 Nat_0) (n_0 Nat_0) (st_0 list_0) (x_14 list_0) (x_15 list_0) (x_69 Nat_0))
	(=>	(and (= x_14 (cons_0 n_0 x_15))
			(store_0 x_15 st_0 x_69 z_0)
			(= x_1 (cons_0 n_0 st_0))
			(diseqNat_0 y_0 Z_0)
			(minus_0 x_69 y_0 (S_0 Z_0)))
		(store_0 x_14 x_1 y_0 z_0))))
(assert (forall ((x_1 list_0) (y_0 Nat_0) (z_0 Nat_0) (x_16 list_0))
	(=>	(and (= x_16 (cons_0 z_0 nil_0))
			(= x_1 nil_0)
			(= y_0 Z_0))
		(store_0 x_16 x_1 y_0 z_0))))
(assert (forall ((x_1 list_0) (y_0 Nat_0) (z_0 Nat_0) (x_17 list_0) (x_18 list_0) (x_70 Nat_0))
	(=>	(and (= x_17 (cons_0 Z_0 x_18))
			(store_0 x_18 nil_0 x_70 z_0)
			(= x_1 nil_0)
			(diseqNat_0 y_0 Z_0)
			(minus_0 x_70 y_0 (S_0 Z_0)))
		(store_0 x_17 x_1 y_0 z_0))))
(declare-fun fetch_0 (Nat_0 list_0 Nat_0) Bool)
(assert (forall ((x_2 list_0) (y_1 Nat_0) (n_1 Nat_0) (st_1 list_0) (x_19 Nat_0))
	(=>	(and (= x_19 n_1)
			(= x_2 (cons_0 n_1 st_1))
			(= y_1 Z_0))
		(fetch_0 x_19 x_2 y_1))))
(assert (forall ((x_2 list_0) (y_1 Nat_0) (n_1 Nat_0) (st_1 list_0) (x_20 Nat_0) (x_21 Nat_0) (x_71 Nat_0))
	(=>	(and (= x_20 x_21)
			(fetch_0 x_21 st_1 x_71)
			(= x_2 (cons_0 n_1 st_1))
			(diseqNat_0 y_1 Z_0)
			(minus_0 x_71 y_1 (S_0 Z_0)))
		(fetch_0 x_20 x_2 y_1))))
(assert (forall ((x_2 list_0) (y_1 Nat_0) (x_22 Nat_0))
	(=>	(and (= x_22 Z_0)
			(= x_2 nil_0))
		(fetch_0 x_22 x_2 y_1))))
(declare-fun eval_0 (Nat_0 list_0 E_0) Bool)
(assert (forall ((x_3 list_0) (y_2 E_0) (z_1 Nat_0) (x_23 Nat_0) (x_24 Nat_0))
	(=>	(and (= x_23 x_24)
			(fetch_0 x_24 x_3 z_1)
			(= y_2 (V_0 z_1)))
		(eval_0 x_23 x_3 y_2))))
(assert (forall ((x_3 list_0) (y_2 E_0) (a_0 E_0) (b_0 E_0) (x_27 Nat_0) (x_25 Nat_0) (x_26 Nat_0))
	(=>	(and (= x_27 (S_0 Z_0))
			(= y_2 (Eq_0 a_0 b_0))
			(= x_25 x_26)
			(eval_0 x_25 x_3 a_0)
			(eval_0 x_26 x_3 b_0))
		(eval_0 x_27 x_3 y_2))))
(assert (forall ((x_3 list_0) (y_2 E_0) (a_0 E_0) (b_0 E_0) (x_30 Nat_0) (x_28 Nat_0) (x_29 Nat_0))
	(=>	(and (= x_30 Z_0)
			(= y_2 (Eq_0 a_0 b_0))
			(diseqNat_0 x_28 x_29)
			(eval_0 x_28 x_3 a_0)
			(eval_0 x_29 x_3 b_0))
		(eval_0 x_30 x_3 y_2))))
(assert (forall ((x_3 list_0) (y_2 E_0) (c_0 E_0) (b_1 E_0) (x_31 Nat_0) (x_32 Nat_0) (x_33 Nat_0) (x_72 Nat_0))
	(=>	(and (= x_31 x_72)
			(eval_0 x_32 x_3 c_0)
			(eval_0 x_33 x_3 b_1)
			(= y_2 (Mul_0 c_0 b_1))
			(mult_0 x_72 x_32 x_33))
		(eval_0 x_31 x_3 y_2))))
(assert (forall ((x_3 list_0) (y_2 E_0) (a_1 E_0) (b_2 E_0) (x_34 Nat_0) (x_35 Nat_0) (x_36 Nat_0) (x_73 Nat_0))
	(=>	(and (= x_34 x_73)
			(eval_0 x_35 x_3 a_1)
			(eval_0 x_36 x_3 b_2)
			(= y_2 (Add_0 a_1 b_2))
			(add_0 x_73 x_35 x_36))
		(eval_0 x_34 x_3 y_2))))
(assert (forall ((x_3 list_0) (y_2 E_0) (n_2 Nat_0) (x_37 Nat_0))
	(=>	(and (= x_37 n_2)
			(= y_2 (N_0 n_2)))
		(eval_0 x_37 x_3 y_2))))
(declare-fun x_4 (list_1 list_1 list_1) Bool)
(assert (forall ((x_5 list_1) (y_3 list_1) (z_2 P_0) (xs_0 list_1) (x_38 list_1) (x_39 list_1))
	(=>	(and (= x_38 (cons_1 z_2 x_39))
			(x_4 x_39 xs_0 y_3)
			(= x_5 (cons_1 z_2 xs_0)))
		(x_4 x_38 x_5 y_3))))
(assert (forall ((x_5 list_1) (y_3 list_1) (x_40 list_1))
	(=>	(and (= x_40 y_3)
			(= x_5 nil_1))
		(x_4 x_40 x_5 y_3))))
(declare-fun opti_0 (P_0 P_0) Bool)
(assert (forall ((x_6 P_0) (c_1 E_0) (q_0 list_1) (r_0 list_1) (x_41 P_0))
	(=>	(and (= x_41 (If_0 c_1 r_0 q_0))
			(= x_6 (If_0 c_1 q_0 r_0)))
		(opti_0 x_41 x_6))))
(assert (forall ((x_6 P_0) (e_0 E_0) (p_0 list_1) (x_42 P_0) (x_43 list_1))
	(=>	(and (= x_42 (While_0 e_0 x_43))
			(x_4 x_43 p_0 p_0)
			(= x_6 (While_0 e_0 p_0)))
		(opti_0 x_42 x_6))))
(assert (forall ((x_6 P_0) (x_10 E_0) (x_7 P_0) (x_44 P_0))
	(=>	(and (= x_44 x_6)
			(= x_6 (Print_0 x_10)))
		(opti_0 x_44 x_6))))
(assert (forall ((x_6 P_0) (x_11 Nat_0) (x_12 E_0) (x_7 P_0) (x_45 P_0))
	(=>	(and (= x_45 x_6)
			(= x_6 (x_0 x_11 x_12)))
		(opti_0 x_45 x_6))))
(declare-fun run_0 (list_0 list_0 list_1) Bool)
(assert (forall ((x_8 list_0) (y_4 list_1) (z_3 P_0) (r_1 list_1) (e_1 E_0) (q_1 list_1) (q_2 list_1) (x_47 list_0) (x_48 list_1) (x_49 list_0) (x_46 Nat_0))
	(=>	(and (= x_47 x_49)
			(x_4 x_48 q_2 r_1)
			(run_0 x_49 x_8 x_48)
			(= y_4 (cons_1 z_3 r_1))
			(= z_3 (If_0 e_1 q_1 q_2))
			(= x_46 Z_0)
			(eval_0 x_46 x_8 e_1))
		(run_0 x_47 x_8 y_4))))
(assert (forall ((x_8 list_0) (y_4 list_1) (z_3 P_0) (r_1 list_1) (e_1 E_0) (q_1 list_1) (q_2 list_1) (x_51 list_0) (x_52 list_1) (x_53 list_0) (x_50 Nat_0))
	(=>	(and (= x_51 x_53)
			(x_4 x_52 q_1 r_1)
			(run_0 x_53 x_8 x_52)
			(= y_4 (cons_1 z_3 r_1))
			(= z_3 (If_0 e_1 q_1 q_2))
			(diseqNat_0 x_50 Z_0)
			(eval_0 x_50 x_8 e_1))
		(run_0 x_51 x_8 y_4))))
(assert (forall ((x_8 list_0) (y_4 list_1) (z_3 P_0) (r_1 list_1) (e_2 E_0) (p_1 list_1) (x_54 list_0) (x_55 list_1) (x_56 list_0))
	(=>	(and (= x_54 x_56)
			(x_4 x_55 p_1 (cons_1 (While_0 e_2 p_1) nil_1))
			(run_0 x_56 x_8 (cons_1 (If_0 e_2 x_55 nil_1) r_1))
			(= y_4 (cons_1 z_3 r_1))
			(= z_3 (While_0 e_2 p_1)))
		(run_0 x_54 x_8 y_4))))
(assert (forall ((x_8 list_0) (y_4 list_1) (z_3 P_0) (r_1 list_1) (x_9 Nat_0) (e_3 E_0) (x_57 list_0) (x_58 Nat_0) (x_59 list_0) (x_60 list_0))
	(=>	(and (= x_57 x_60)
			(eval_0 x_58 x_8 e_3)
			(store_0 x_59 x_8 x_9 x_58)
			(run_0 x_60 x_59 r_1)
			(= y_4 (cons_1 z_3 r_1))
			(= z_3 (x_0 x_9 e_3)))
		(run_0 x_57 x_8 y_4))))
(assert (forall ((x_8 list_0) (y_4 list_1) (z_3 P_0) (r_1 list_1) (e_4 E_0) (x_61 list_0) (x_62 Nat_0) (x_63 list_0))
	(=>	(and (= x_61 (cons_0 x_62 x_63))
			(eval_0 x_62 x_8 e_4)
			(run_0 x_63 x_8 r_1)
			(= y_4 (cons_1 z_3 r_1))
			(= z_3 (Print_0 e_4)))
		(run_0 x_61 x_8 y_4))))
(assert (forall ((x_8 list_0) (y_4 list_1) (x_64 list_0))
	(=>	(and (= x_64 nil_0)
			(= y_4 nil_1))
		(run_0 x_64 x_8 y_4))))
(assert (forall ((p_2 P_0) (x_65 list_0) (x_66 P_0) (x_67 list_0))
	(=>	(and (diseqlist_0 x_65 x_67)
			(run_0 x_65 nil_0 (cons_1 p_2 nil_1))
			(opti_0 x_66 p_2)
			(run_0 x_67 nil_0 (cons_1 x_66 nil_1)))
		false)))
(check-sat)
